c read Graph
c width = 221
c time = 186 ms
c width = 19
c time = 318 ms
c width = 18
c time = 402 ms
c width = 17
c time = 489 ms
c width = 16
c time = 711 ms
c width = 15
c time = 2579 ms
c width = 15
c time = 4818 ms
s td 198 16 234
b 1 1 2 19
b 2 2 3 19 20
b 3 16 17 35 36
b 4 3 19 20 37
b 5 16 35 36 54
b 6 181 199 200 218
b 7 198 215 216 233
b 8 181 200 218 219
b 9 198 215 232 233
b 10 3 4 5 22
b 11 3 5 21 22 38 55
b 12 5 21 22 38 40 55 57
b 13 21 38 39 40 57
b 14 5 22 38 40 55 57 74
b 15 5 22 40 55 57 74 91
b 16 5 22 24 40 41 57 74 91
b 17 5 22 23 24 41
b 18 5 24 40 41 57 59 74 76 91
b 19 5 24 41 57 59 74 76 91 93
b 20 57 74 75 76 93
b 21 5 24 41 59 74 76 91 93 110
b 22 74 91 92 93 110
b 23 5 24 41 43 59 60 76 91 93 110
b 24 24 41 42 43 60
b 25 5 24 43 59 60 76 79 91 93 97 110 112 114 131
b 26 59 60 76 79 93 95 97 112 114 131
b 27 76 93 94 95 112
b 28 59 60 76 78 79 95 97 114
b 29 78 95 96 97 114
b 30 59 76 77 78 95
b 31 95 112 113 114 131
b 32 5 24 43 60 62 79 91 93 97 110 112 114 131
b 33 5 24 43 62 79 91 93 97 110 112 114 129 131
b 34 5 24 43 62 79 91 97 110 112 114 129 130 131
b 35 5 24 43 62 79 91 97 110 114 129 130 131 148
b 36 5 24 43 62 79 91 97 110 114 129 131 148 167 186 203 222
b 37 5 24 43 62 79 97 114 131 133 148 150 167 186 203 222
b 38 5 24 43 62 79 97 114 133 150 167 169 186 203 222
b 39 5 24 43 62 79 97 114 133 150 169 186 188 203 207 222 226
b 40 169 186 188 203 205 207 222 226
b 41 188 205 207 222 224 226
b 42 207 224 225 226
b 43 188 205 206 207 224
b 44 205 222 223 224
b 45 186 203 204 205 222
b 46 169 186 187 188 205
b 47 5 24 43 62 79 97 114 133 150 152 169 188 207 226
b 48 5 24 43 62 79 97 114 133 152 169 171 188 207 226
b 49 152 169 170 171 188
b 50 5 24 43 62 79 97 114 133 152 171 188 190 207 226
b 51 5 24 43 62 79 97 114 116 133 152 171 190 207 226
b 52 5 24 43 62 79 97 116 133 136 152 154 171 190 207 226
b 53 5 24 43 62 79 97 116 117 133 136 152 154 171 190 207 226
b 54 116 117 133 135 136 152 154 171
b 55 116 133 134 135 152
b 56 135 152 153 154 171
b 57 5 24 43 62 79 81 97 100 116 117 136 154 171 190 207 226
b 58 62 79 81 97 98 100 116 117
b 59 62 79 80 81 98
b 60 81 98 99 100 117
b 61 5 9 24 28 43 45 62 81 100 117 136 154 171 190 207 226
b 62 9 28 45 62 64 81 100 117 136 154 171 190 207 226
b 63 9 28 45 64 81 83 100 117 136 154 171 190 207 226
b 64 9 28 45 47 64 83 100 117 136 154 171 190 207 226
b 65 9 28 47 64 66 83 100 117 136 154 171 190 207 226
b 66 9 28 47 66 83 100 117 119 136 154 171 190 207 226
b 67 100 117 118 119 136
b 68 9 28 47 66 83 100 119 136 154 171 173 190 207 226
b 69 154 171 172 173 190
b 70 9 28 47 66 83 100 119 136 138 154 157 173 174 190 207 226
b 71 119 136 138 154 155 157 173 174
b 72 138 155 156 157 174
b 73 119 136 137 138 155
b 74 9 28 47 66 83 100 102 119 138 157 173 174 190 207 226
b 75 9 28 47 66 83 85 102 119 138 157 173 174 190 207 226
b 76 66 83 84 85 102
b 77 9 28 47 66 85 102 119 121 138 157 173 174 190 207 226
b 78 9 28 47 66 85 102 121 138 140 157 173 174 190 207 226
b 79 121 138 139 140 157
b 80 9 28 47 66 85 102 104 121 140 157 173 174 190 207 226
b 81 85 102 103 104 121
b 82 102 119 120 121 138
b 83 83 100 101 102 119
b 84 47 64 65 66 83
b 85 28 45 46 47 64
b 86 64 81 82 83 100
b 87 45 62 63 64 81
b 88 5 9 24 26 28 43 45 62
b 89 26 43 44 45 62
b 90 5 7 9 24 26 43
b 91 7 24 25 26 43
b 92 7 8 9 26
b 93 5 6 7 24
b 94 9 26 27 28 45
b 95 97 114 115 116 133
b 96 171 188 189 190 207
b 97 133 150 151 152 169
b 98 150 167 168 169 186
b 99 114 131 132 133 150
b 100 131 148 149 150 167
b 101 91 110 129 146 148 163 167 186 203 222
b 102 91 110 127 129 146 163
b 103 127 145 146 163
b 104 91 109 110 127
b 105 110 127 128 129 146
b 106 129 146 148 163 167 184 186 203 222
b 107 129 146 148 163 165 167 184 203 222
b 108 129 146 147 148 165
b 109 148 165 166 167 184
b 110 146 163 165 184 203 220 222
b 111 203 220 221 222
b 112 146 163 165 184 201 203 220
b 113 184 201 202 203 220
b 114 146 163 165 182 184 201 220
b 115 163 182 201 219 220
b 116 163 181 182 201 219
b 117 181 182 200 201 219
b 118 146 163 164 165 182
b 119 165 182 183 184 201
b 120 167 184 185 186 203
b 121 93 110 111 112 129
b 122 43 60 61 62 79
b 123 40 57 58 59 76
b 124 55 73 74 91
b 125 38 55 56 57 74
b 126 3 21 37 38 55
b 127 3 20 21 37 38
b 128 9 13 28 32 47 49 66 85 104 123 142 161 180
b 129 9 28 47 66 85 104 121 123 140 142 159 161 180
b 130 9 28 47 66 85 104 121 140 142 159 161 178 180
b 131 9 28 47 66 85 104 121 140 157 159 161 176 178 180 195
b 132 9 28 47 66 85 104 121 140 157 161 176 178 180 195 212 230
b 133 9 28 47 66 85 104 121 140 157 175 176 180 193 195 212 230
b 134 9 28 47 66 85 104 121 140 157 174 175 180 193 195 212 230
b 135 9 28 47 66 85 104 121 140 157 174 192 193 209 212 226 230
b 136 9 28 47 66 85 104 121 140 157 173 174 190 192 209 226 230
b 137 9 28 47 66 85 104 121 140 157 173 174 190 207 209 226 230
b 138 123 140 141 142 159
b 139 104 121 122 123 140
b 140 190 207 208 209 226
b 141 173 190 191 192 209
b 142 192 193 209 211 212 226 230
b 143 192 209 211 226 228 230
b 144 209 226 227 228
b 145 211 228 229 230
b 146 192 209 210 211 228
b 147 161 178 180 195 212 214 230 232
b 148 161 178 180 195 197 214 232
b 149 180 197 198 214 232
b 150 197 198 214 215 232
b 151 178 195 196 197 214
b 152 161 178 179 180 197
b 153 195 212 213 214 230 232
b 154 213 230 231 232
b 155 159 176 177 178 195
b 156 142 159 160 161 178
b 157 176 193 194 195 212
b 158 140 157 158 159 176
b 159 9 13 28 30 32 47 49 66
b 160 30 47 48 49 66
b 161 9 11 13 28 30 47
b 162 11 12 13 30
b 163 9 10 11 28
b 164 11 28 29 30 47
b 165 13 30 31 32 49
b 166 13 32 49 66 85 89 104 106 108 123 142 161 180
b 167 13 32 49 66 85 87 89 104 106 108 123
b 168 87 104 105 106 123
b 169 13 32 49 66 68 85 87 89 104 106 108
b 170 13 32 49 68 70 87 89 106 108
b 171 13 32 49 51 68 70 87 89 108
b 172 13 32 51 70 72 89 108
b 173 13 15 32 51 70 72 89
b 174 13 14 15 32
b 175 15 32 51 53 70 72 89
b 176 15 32 34 51 53 70 72
b 177 15 34 53 54 72
b 178 15 16 34 53 54
b 179 16 34 35 53 54
b 180 34 51 52 53 70
b 181 15 32 33 34 51
b 182 53 70 71 72 89
b 183 72 89 90 108
b 184 32 49 50 51 68
b 185 51 68 69 70 87
b 186 70 87 88 89 106
b 187 49 66 67 68 85
b 188 68 85 86 87 104
b 189 89 106 108 123 125 142 161 180
b 190 89 106 107 108 125
b 191 106 123 124 125 142
b 192 108 125 142 144 161 180
b 193 108 125 126 144
b 194 144 161 162 180
b 195 125 142 143 144 161
b 196 216 233 234
b 197 199 217 218
b 198 17 18 36
1 2
2 4
3 198
3 5
4 127
5 179
6 197
6 8
7 196
7 9
8 117
9 150
10 11
11 126
11 12
12 14
12 13
14 125
14 15
15 124
15 16
16 18
16 17
18 123
18 19
19 21
19 20
21 23
21 22
23 25
23 24
25 32
25 26
26 28
26 31
26 27
28 29
28 30
32 122
32 33
33 121
33 34
34 35
35 36
36 101
36 37
37 99
37 100
37 38
38 98
38 39
39 47
39 40
40 41
40 45
40 46
41 44
41 42
41 43
47 48
47 97
48 50
48 49
50 51
50 96
51 52
51 95
52 53
53 54
53 57
54 55
54 56
57 58
57 61
58 59
58 60
61 88
61 62
62 87
62 63
63 86
63 64
64 85
64 65
65 66
65 84
66 68
66 67
68 70
68 69
70 74
70 71
71 72
71 73
74 83
74 75
75 77
75 76
77 82
77 78
78 80
78 79
80 137
80 81
88 94
88 89
88 90
90 93
90 92
90 91
101 106
101 102
102 103
102 104
102 105
106 120
106 107
107 108
107 109
107 110
110 111
110 112
112 114
112 113
114 115
114 118
114 119
115 116
116 117
126 127
128 166
128 159
128 129
129 139
129 138
129 130
130 156
130 131
131 158
131 155
131 132
132 147
132 133
133 157
133 134
134 135
135 142
135 136
136 141
136 137
137 140
142 143
143 144
143 145
143 146
147 153
147 148
148 152
148 149
148 151
149 150
153 154
159 161
159 165
159 160
161 162
161 163
161 164
166 167
166 189
167 168
167 169
169 170
169 187
169 188
170 186
170 171
171 185
171 184
171 172
172 173
172 183
173 174
173 175
175 182
175 176
176 177
176 181
176 180
177 178
178 179
189 190
189 191
189 192
192 193
192 194
192 195
